(set-logic UFLIRA)
(declare-fun RefuseRequest (Int) Bool)
(declare-fun CurtainOpenRqt_59_presence () Bool)
(declare-fun Measure_33_presence () Bool)
(declare-fun DressingComplete_47_presence () Bool)
(declare-fun RetryAgreed_83_presence () Bool)
(declare-fun SupportCalled (Int) Bool)
(declare-fun UserFallen_71_presence () Bool)
(declare-fun CurtainsOpened (Int) Bool)
(declare-fun CurtainsOpened_47_presence () Bool)
(declare-fun DressingStarted (Int) Bool)
(declare-fun DressingComplete (Int) Bool)
(declare-fun RetryAgreed (Int) Bool)
(declare-fun Measure (Int Bool Int Bool Int) Bool)
(declare-fun DressingAbandoned_59_presence () Bool)
(declare-fun CurtainOpenRqt (Int) Bool)
(declare-fun UserFallen (Int) Bool)
(declare-fun DressingAbandoned (Int) Bool)
(declare-fun Measure_34_presence () Bool)
(declare-fun DressingStarted_107_presence () Bool)
(declare-fun Measure_35_presence () Bool)
(declare-fun SupportCalled_59_presence () Bool)
(declare-fun RefuseRequest_47_presence () Bool)
(assert (let ((.def_0 (forall ((Measure_35_time Int)(Measure_35_userUnderDressed Bool)(Measure_35_roomTemperature Int)(Measure_35_assentToSupportCalls Bool)(Measure_35_userDistressed Int)) (let ((.def_0 (<= 0 Measure_35_time))) (let ((.def_1 (and .def_0 true true true true))) (let ((.def_2 (=> Measure_35_presence .def_1))) (let ((.def_3 (Measure Measure_35_time Measure_35_userUnderDressed Measure_35_roomTemperature Measure_35_assentToSupportCalls Measure_35_userDistressed))) (let ((.def_4 (not .def_3))) (let ((.def_5 (or .def_4 .def_2))) .def_5)))))))))(let ((.def_1 (forall ((RetryAgreed_83_time Int)) (let ((.def_0 (<= 0 RetryAgreed_83_time))) (let ((.def_1 (=> RetryAgreed_83_presence .def_0))) (let ((.def_2 (RetryAgreed RetryAgreed_83_time))) (let ((.def_3 (not .def_2))) (let ((.def_4 (or .def_3 .def_1))) .def_4))))))))(let ((.def_2 (forall ((SupportCalled_59_time Int)) (let ((.def_0 (<= 0 SupportCalled_59_time))) (let ((.def_1 (=> SupportCalled_59_presence .def_0))) (let ((.def_2 (SupportCalled SupportCalled_59_time))) (let ((.def_3 (not .def_2))) (let ((.def_4 (or .def_3 .def_1))) .def_4))))))))(let ((.def_3 (forall ((UserFallen_71_time Int)) (let ((.def_0 (<= 0 UserFallen_71_time))) (let ((.def_1 (=> UserFallen_71_presence .def_0))) (let ((.def_2 (UserFallen UserFallen_71_time))) (let ((.def_3 (not .def_2))) (let ((.def_4 (or .def_3 .def_1))) .def_4))))))))(let ((.def_4 (forall ((RefuseRequest_47_time Int)) (let ((.def_0 (<= 0 RefuseRequest_47_time))) (let ((.def_1 (=> RefuseRequest_47_presence .def_0))) (let ((.def_2 (RefuseRequest RefuseRequest_47_time))) (let ((.def_3 (not .def_2))) (let ((.def_4 (or .def_3 .def_1))) .def_4))))))))(let ((.def_5 (forall ((CurtainsOpened_47_time Int)) (let ((.def_0 (<= 0 CurtainsOpened_47_time))) (let ((.def_1 (=> CurtainsOpened_47_presence .def_0))) (let ((.def_2 (CurtainsOpened CurtainsOpened_47_time))) (let ((.def_3 (not .def_2))) (let ((.def_4 (or .def_3 .def_1))) .def_4))))))))(let ((.def_6 (forall ((CurtainOpenRqt_59_time Int)) (let ((.def_0 (<= 0 CurtainOpenRqt_59_time))) (let ((.def_1 (=> CurtainOpenRqt_59_presence .def_0))) (let ((.def_2 (CurtainOpenRqt CurtainOpenRqt_59_time))) (let ((.def_3 (not .def_2))) (let ((.def_4 (or .def_3 .def_1))) .def_4))))))))(let ((.def_7 (forall ((DressingAbandoned_59_time Int)) (let ((.def_0 (<= 0 DressingAbandoned_59_time))) (let ((.def_1 (=> DressingAbandoned_59_presence .def_0))) (let ((.def_2 (DressingAbandoned DressingAbandoned_59_time))) (let ((.def_3 (not .def_2))) (let ((.def_4 (or .def_3 .def_1))) .def_4))))))))(let ((.def_8 (forall ((DressingComplete_47_time Int)) (let ((.def_0 (<= 0 DressingComplete_47_time))) (let ((.def_1 (=> DressingComplete_47_presence .def_0))) (let ((.def_2 (DressingComplete DressingComplete_47_time))) (let ((.def_3 (not .def_2))) (let ((.def_4 (or .def_3 .def_1))) .def_4))))))))(let ((.def_9 (forall ((DressingStarted_107_time Int)) (let ((.def_0 (<= 0 DressingStarted_107_time))) (let ((.def_1 (=> DressingStarted_107_presence .def_0))) (let ((.def_2 (DressingStarted DressingStarted_107_time))) (let ((.def_3 (not .def_2))) (let ((.def_4 (or .def_3 .def_1))) .def_4))))))))(let ((.def_10 (exists ((t_RetryAgreed_38_time Int)) (let ((.def_0 (forall ((RetryAgreed_82_time Int)) (let ((.def_0 (<= RetryAgreed_82_time t_RetryAgreed_38_time))) (let ((.def_1 (RetryAgreed RetryAgreed_82_time))) (let ((.def_2 (not .def_1))) (let ((.def_3 (or .def_2 .def_0))) .def_3)))))))(let ((.def_1 (RetryAgreed t_RetryAgreed_38_time))) (let ((.def_2 (and .def_1 .def_0))) .def_2))))))(let ((.def_11 (exists ((t_RetryAgreed_37_time Int)) (let ((.def_0 (forall ((RetryAgreed_81_time Int)) (let ((.def_0 (<= t_RetryAgreed_37_time RetryAgreed_81_time))) (let ((.def_1 (RetryAgreed RetryAgreed_81_time))) (let ((.def_2 (not .def_1))) (let ((.def_3 (or .def_2 .def_0))) .def_3)))))))(let ((.def_1 (RetryAgreed t_RetryAgreed_37_time))) (let ((.def_2 (and .def_1 .def_0))) .def_2))))))(let ((.def_12 (and .def_11 .def_10))) (let ((.def_13 (forall ((RetryAgreed_80_time Int)) (let ((.def_0 (not true))) (let ((.def_1 (RetryAgreed RetryAgreed_80_time))) (let ((.def_2 (not .def_1))) (let ((.def_3 (or .def_2 .def_0))) .def_3)))))))(let ((.def_14 (or .def_13 .def_12))) (let ((.def_15 (exists ((t_SupportCalled_83_time Int)) (let ((.def_0 (forall ((SupportCalled_58_time Int)) (let ((.def_0 (<= SupportCalled_58_time t_SupportCalled_83_time))) (let ((.def_1 (SupportCalled SupportCalled_58_time))) (let ((.def_2 (not .def_1))) (let ((.def_3 (or .def_2 .def_0))) .def_3)))))))(let ((.def_1 (SupportCalled t_SupportCalled_83_time))) (let ((.def_2 (and .def_1 .def_0))) .def_2))))))(let ((.def_16 (exists ((t_SupportCalled_82_time Int)) (let ((.def_0 (forall ((SupportCalled_57_time Int)) (let ((.def_0 (<= t_SupportCalled_82_time SupportCalled_57_time))) (let ((.def_1 (SupportCalled SupportCalled_57_time))) (let ((.def_2 (not .def_1))) (let ((.def_3 (or .def_2 .def_0))) .def_3)))))))(let ((.def_1 (SupportCalled t_SupportCalled_82_time))) (let ((.def_2 (and .def_1 .def_0))) .def_2))))))(let ((.def_17 (and .def_16 .def_15))) (let ((.def_18 (forall ((SupportCalled_56_time Int)) (let ((.def_0 (not true))) (let ((.def_1 (SupportCalled SupportCalled_56_time))) (let ((.def_2 (not .def_1))) (let ((.def_3 (or .def_2 .def_0))) .def_3)))))))(let ((.def_19 (or .def_18 .def_17))) (let ((.def_20 (exists ((t_UserFallen_25_time Int)) (let ((.def_0 (forall ((UserFallen_70_time Int)) (let ((.def_0 (<= UserFallen_70_time t_UserFallen_25_time))) (let ((.def_1 (UserFallen UserFallen_70_time))) (let ((.def_2 (not .def_1))) (let ((.def_3 (or .def_2 .def_0))) .def_3)))))))(let ((.def_1 (UserFallen t_UserFallen_25_time))) (let ((.def_2 (and .def_1 .def_0))) .def_2))))))(let ((.def_21 (exists ((t_UserFallen_24_time Int)) (let ((.def_0 (forall ((UserFallen_69_time Int)) (let ((.def_0 (<= t_UserFallen_24_time UserFallen_69_time))) (let ((.def_1 (UserFallen UserFallen_69_time))) (let ((.def_2 (not .def_1))) (let ((.def_3 (or .def_2 .def_0))) .def_3)))))))(let ((.def_1 (UserFallen t_UserFallen_24_time))) (let ((.def_2 (and .def_1 .def_0))) .def_2))))))(let ((.def_22 (and .def_21 .def_20))) (let ((.def_23 (forall ((UserFallen_68_time Int)) (let ((.def_0 (not true))) (let ((.def_1 (UserFallen UserFallen_68_time))) (let ((.def_2 (not .def_1))) (let ((.def_3 (or .def_2 .def_0))) .def_3)))))))(let ((.def_24 (or .def_23 .def_22))) (let ((.def_25 (exists ((t_RefuseRequest_35_time Int)) (let ((.def_0 (forall ((RefuseRequest_46_time Int)) (let ((.def_0 (<= RefuseRequest_46_time t_RefuseRequest_35_time))) (let ((.def_1 (RefuseRequest RefuseRequest_46_time))) (let ((.def_2 (not .def_1))) (let ((.def_3 (or .def_2 .def_0))) .def_3)))))))(let ((.def_1 (RefuseRequest t_RefuseRequest_35_time))) (let ((.def_2 (and .def_1 .def_0))) .def_2))))))(let ((.def_26 (exists ((t_RefuseRequest_34_time Int)) (let ((.def_0 (forall ((RefuseRequest_45_time Int)) (let ((.def_0 (<= t_RefuseRequest_34_time RefuseRequest_45_time))) (let ((.def_1 (RefuseRequest RefuseRequest_45_time))) (let ((.def_2 (not .def_1))) (let ((.def_3 (or .def_2 .def_0))) .def_3)))))))(let ((.def_1 (RefuseRequest t_RefuseRequest_34_time))) (let ((.def_2 (and .def_1 .def_0))) .def_2))))))(let ((.def_27 (and .def_26 .def_25))) (let ((.def_28 (forall ((RefuseRequest_44_time Int)) (let ((.def_0 (not true))) (let ((.def_1 (RefuseRequest RefuseRequest_44_time))) (let ((.def_2 (not .def_1))) (let ((.def_3 (or .def_2 .def_0))) .def_3)))))))(let ((.def_29 (or .def_28 .def_27))) (let ((.def_30 (exists ((t_CurtainsOpened_47_time Int)) (let ((.def_0 (forall ((CurtainsOpened_46_time Int)) (let ((.def_0 (<= CurtainsOpened_46_time t_CurtainsOpened_47_time))) (let ((.def_1 (CurtainsOpened CurtainsOpened_46_time))) (let ((.def_2 (not .def_1))) (let ((.def_3 (or .def_2 .def_0))) .def_3)))))))(let ((.def_1 (CurtainsOpened t_CurtainsOpened_47_time))) (let ((.def_2 (and .def_1 .def_0))) .def_2))))))(let ((.def_31 (exists ((t_CurtainsOpened_46_time Int)) (let ((.def_0 (forall ((CurtainsOpened_45_time Int)) (let ((.def_0 (<= t_CurtainsOpened_46_time CurtainsOpened_45_time))) (let ((.def_1 (CurtainsOpened CurtainsOpened_45_time))) (let ((.def_2 (not .def_1))) (let ((.def_3 (or .def_2 .def_0))) .def_3)))))))(let ((.def_1 (CurtainsOpened t_CurtainsOpened_46_time))) (let ((.def_2 (and .def_1 .def_0))) .def_2))))))(let ((.def_32 (and .def_31 .def_30))) (let ((.def_33 (forall ((CurtainsOpened_44_time Int)) (let ((.def_0 (not true))) (let ((.def_1 (CurtainsOpened CurtainsOpened_44_time))) (let ((.def_2 (not .def_1))) (let ((.def_3 (or .def_2 .def_0))) .def_3)))))))(let ((.def_34 (or .def_33 .def_32))) (let ((.def_35 (exists ((t_CurtainOpenRqt_24_time Int)) (let ((.def_0 (forall ((CurtainOpenRqt_58_time Int)) (let ((.def_0 (<= CurtainOpenRqt_58_time t_CurtainOpenRqt_24_time))) (let ((.def_1 (CurtainOpenRqt CurtainOpenRqt_58_time))) (let ((.def_2 (not .def_1))) (let ((.def_3 (or .def_2 .def_0))) .def_3)))))))(let ((.def_1 (CurtainOpenRqt t_CurtainOpenRqt_24_time))) (let ((.def_2 (and .def_1 .def_0))) .def_2))))))(let ((.def_36 (exists ((t_CurtainOpenRqt_23_time Int)) (let ((.def_0 (forall ((CurtainOpenRqt_57_time Int)) (let ((.def_0 (<= t_CurtainOpenRqt_23_time CurtainOpenRqt_57_time))) (let ((.def_1 (CurtainOpenRqt CurtainOpenRqt_57_time))) (let ((.def_2 (not .def_1))) (let ((.def_3 (or .def_2 .def_0))) .def_3)))))))(let ((.def_1 (CurtainOpenRqt t_CurtainOpenRqt_23_time))) (let ((.def_2 (and .def_1 .def_0))) .def_2))))))(let ((.def_37 (and .def_36 .def_35))) (let ((.def_38 (forall ((CurtainOpenRqt_56_time Int)) (let ((.def_0 (not true))) (let ((.def_1 (CurtainOpenRqt CurtainOpenRqt_56_time))) (let ((.def_2 (not .def_1))) (let ((.def_3 (or .def_2 .def_0))) .def_3)))))))(let ((.def_39 (or .def_38 .def_37))) (let ((.def_40 (exists ((t_DressingAbandoned_84_time Int)) (let ((.def_0 (forall ((DressingAbandoned_58_time Int)) (let ((.def_0 (<= DressingAbandoned_58_time t_DressingAbandoned_84_time))) (let ((.def_1 (DressingAbandoned DressingAbandoned_58_time))) (let ((.def_2 (not .def_1))) (let ((.def_3 (or .def_2 .def_0))) .def_3)))))))(let ((.def_1 (DressingAbandoned t_DressingAbandoned_84_time))) (let ((.def_2 (and .def_1 .def_0))) .def_2))))))(let ((.def_41 (exists ((t_DressingAbandoned_83_time Int)) (let ((.def_0 (forall ((DressingAbandoned_57_time Int)) (let ((.def_0 (<= t_DressingAbandoned_83_time DressingAbandoned_57_time))) (let ((.def_1 (DressingAbandoned DressingAbandoned_57_time))) (let ((.def_2 (not .def_1))) (let ((.def_3 (or .def_2 .def_0))) .def_3)))))))(let ((.def_1 (DressingAbandoned t_DressingAbandoned_83_time))) (let ((.def_2 (and .def_1 .def_0))) .def_2))))))(let ((.def_42 (and .def_41 .def_40))) (let ((.def_43 (forall ((DressingAbandoned_56_time Int)) (let ((.def_0 (not true))) (let ((.def_1 (DressingAbandoned DressingAbandoned_56_time))) (let ((.def_2 (not .def_1))) (let ((.def_3 (or .def_2 .def_0))) .def_3)))))))(let ((.def_44 (or .def_43 .def_42))) (let ((.def_45 (exists ((t_DressingComplete_107_time Int)) (let ((.def_0 (forall ((DressingComplete_46_time Int)) (let ((.def_0 (<= DressingComplete_46_time t_DressingComplete_107_time))) (let ((.def_1 (DressingComplete DressingComplete_46_time))) (let ((.def_2 (not .def_1))) (let ((.def_3 (or .def_2 .def_0))) .def_3)))))))(let ((.def_1 (DressingComplete t_DressingComplete_107_time))) (let ((.def_2 (and .def_1 .def_0))) .def_2))))))(let ((.def_46 (exists ((t_DressingComplete_106_time Int)) (let ((.def_0 (forall ((DressingComplete_45_time Int)) (let ((.def_0 (<= t_DressingComplete_106_time DressingComplete_45_time))) (let ((.def_1 (DressingComplete DressingComplete_45_time))) (let ((.def_2 (not .def_1))) (let ((.def_3 (or .def_2 .def_0))) .def_3)))))))(let ((.def_1 (DressingComplete t_DressingComplete_106_time))) (let ((.def_2 (and .def_1 .def_0))) .def_2))))))(let ((.def_47 (and .def_46 .def_45))) (let ((.def_48 (forall ((DressingComplete_44_time Int)) (let ((.def_0 (not true))) (let ((.def_1 (DressingComplete DressingComplete_44_time))) (let ((.def_2 (not .def_1))) (let ((.def_3 (or .def_2 .def_0))) .def_3)))))))(let ((.def_49 (or .def_48 .def_47))) (let ((.def_50 (exists ((t_DressingStarted_64_time Int)) (let ((.def_0 (forall ((DressingStarted_106_time Int)) (let ((.def_0 (<= DressingStarted_106_time t_DressingStarted_64_time))) (let ((.def_1 (DressingStarted DressingStarted_106_time))) (let ((.def_2 (not .def_1))) (let ((.def_3 (or .def_2 .def_0))) .def_3)))))))(let ((.def_1 (DressingStarted t_DressingStarted_64_time))) (let ((.def_2 (and .def_1 .def_0))) .def_2))))))(let ((.def_51 (exists ((t_DressingStarted_63_time Int)) (let ((.def_0 (forall ((DressingStarted_105_time Int)) (let ((.def_0 (<= t_DressingStarted_63_time DressingStarted_105_time))) (let ((.def_1 (DressingStarted DressingStarted_105_time))) (let ((.def_2 (not .def_1))) (let ((.def_3 (or .def_2 .def_0))) .def_3)))))))(let ((.def_1 (DressingStarted t_DressingStarted_63_time))) (let ((.def_2 (and .def_1 .def_0))) .def_2))))))(let ((.def_52 (and .def_51 .def_50))) (let ((.def_53 (forall ((DressingStarted_104_time Int)) (let ((.def_0 (not true))) (let ((.def_1 (DressingStarted DressingStarted_104_time))) (let ((.def_2 (not .def_1))) (let ((.def_3 (or .def_2 .def_0))) .def_3)))))))(let ((.def_54 (or .def_53 .def_52))) (let ((.def_55 (forall ((Measure_33_time Int)(Measure_33_userUnderDressed Bool)(Measure_33_roomTemperature Int)(Measure_33_assentToSupportCalls Bool)(Measure_33_userDistressed Int)) (let ((.def_0 (forall ((Measure_34_time Int)(Measure_34_userUnderDressed Bool)(Measure_34_roomTemperature Int)(Measure_34_assentToSupportCalls Bool)(Measure_34_userDistressed Int)) (let ((.def_0 (= Measure_33_presence Measure_34_presence))) (let ((.def_1 (= Measure_33_userDistressed Measure_34_userDistressed))) (let ((.def_2 (= Measure_33_assentToSupportCalls Measure_34_assentToSupportCalls))) (let ((.def_3 (= Measure_33_roomTemperature Measure_34_roomTemperature))) (let ((.def_4 (= Measure_33_userUnderDressed Measure_34_userUnderDressed))) (let ((.def_5 (= Measure_33_time Measure_34_time))) (let ((.def_6 (and .def_5 .def_4 .def_3 .def_2 .def_1 .def_0))) (let ((.def_7 (not .def_5))) (let ((.def_8 (or .def_7 .def_6))) (let ((.def_9 (Measure Measure_34_time Measure_34_userUnderDressed Measure_34_roomTemperature Measure_34_assentToSupportCalls Measure_34_userDistressed))) (let ((.def_10 (not .def_9))) (let ((.def_11 (or .def_10 .def_8))) .def_11)))))))))))))))(let ((.def_1 (Measure Measure_33_time Measure_33_userUnderDressed Measure_33_roomTemperature Measure_33_assentToSupportCalls Measure_33_userDistressed))) (let ((.def_2 (not .def_1))) (let ((.def_3 (or .def_2 .def_0))) .def_3)))))))(let ((.def_56 (forall ((UserFallen_67_time Int)) (let ((.def_0 (exists ((t_Measure_179_time Int)(t_Measure_179_userUnderDressed Bool)(t_Measure_179_roomTemperature Int)(t_Measure_179_assentToSupportCalls Bool)(t_Measure_179_userDistressed Int)) (let ((.def_0 (forall ((SupportCalled_55_time Int)) (let ((.def_0 (+ UserFallen_67_time 0))) (let ((.def_1 (<= .def_0 SupportCalled_55_time))) (let ((.def_2 (not .def_1))) (let ((.def_3 (+ UserFallen_67_time 120))) (let ((.def_4 (<= SupportCalled_55_time .def_3))) (let ((.def_5 (not .def_4))) (let ((.def_6 (or .def_5 .def_2))) (let ((.def_7 (SupportCalled SupportCalled_55_time))) (let ((.def_8 (not .def_7))) (let ((.def_9 (or .def_8 .def_6))) .def_9)))))))))))))(let ((.def_1 (not t_Measure_179_assentToSupportCalls))) (let ((.def_2 (or .def_1 .def_0))) (let ((.def_3 (= UserFallen_67_time t_Measure_179_time))) (let ((.def_4 (and .def_3 .def_2))) (let ((.def_5 (Measure t_Measure_179_time t_Measure_179_userUnderDressed t_Measure_179_roomTemperature t_Measure_179_assentToSupportCalls t_Measure_179_userDistressed))) (let ((.def_6 (and .def_5 .def_4))) .def_6))))))))))(let ((.def_1 (UserFallen UserFallen_67_time))) (let ((.def_2 (not .def_1))) (let ((.def_3 (or .def_2 .def_0))) .def_3)))))))(let ((.def_57 (forall ((DressingStarted_103_time Int)) (let ((.def_0 (exists ((t_Measure_178_time Int)(t_Measure_178_userUnderDressed Bool)(t_Measure_178_roomTemperature Int)(t_Measure_178_assentToSupportCalls Bool)(t_Measure_178_userDistressed Int)) (let ((.def_0 (exists ((t_DressingComplete_105_time Int)) (let ((.def_0 (+ DressingStarted_103_time 0))) (let ((.def_1 (<= .def_0 t_DressingComplete_105_time))) (let ((.def_2 (+ DressingStarted_103_time 60))) (let ((.def_3 (<= t_DressingComplete_105_time .def_2))) (let ((.def_4 (and .def_3 .def_1))) (let ((.def_5 (DressingComplete t_DressingComplete_105_time))) (let ((.def_6 (and .def_5 .def_4))) .def_6))))))))))(let ((.def_1 (exists ((t_DressingAbandoned_82_time Int)) (let ((.def_0 (+ DressingStarted_103_time 0))) (let ((.def_1 (<= .def_0 t_DressingAbandoned_82_time))) (let ((.def_2 (+ DressingStarted_103_time 120))) (let ((.def_3 (<= t_DressingAbandoned_82_time .def_2))) (let ((.def_4 (and .def_3 .def_1))) (let ((.def_5 (DressingAbandoned t_DressingAbandoned_82_time))) (let ((.def_6 (and .def_5 .def_4))) .def_6))))))))))(let ((.def_2 (or .def_1 .def_0))) (let ((.def_3 (not t_Measure_178_userUnderDressed))) (let ((.def_4 (< t_Measure_178_roomTemperature 16))) (let ((.def_5 (not .def_4))) (let ((.def_6 (and .def_5 .def_3))) (let ((.def_7 (or .def_6 .def_2))) (let ((.def_8 (= DressingStarted_103_time t_Measure_178_time))) (let ((.def_9 (and .def_8 .def_7))) (let ((.def_10 (Measure t_Measure_178_time t_Measure_178_userUnderDressed t_Measure_178_roomTemperature t_Measure_178_assentToSupportCalls t_Measure_178_userDistressed))) (let ((.def_11 (and .def_10 .def_9))) .def_11)))))))))))))))(let ((.def_1 (DressingStarted DressingStarted_103_time))) (let ((.def_2 (not .def_1))) (let ((.def_3 (or .def_2 .def_0))) .def_3)))))))(let ((.def_58 (forall ((DressingAbandoned_55_time Int)) (let ((.def_0 (exists ((t_Measure_176_time Int)(t_Measure_176_userUnderDressed Bool)(t_Measure_176_roomTemperature Int)(t_Measure_176_assentToSupportCalls Bool)(t_Measure_176_userDistressed Int)) (let ((.def_0 (exists ((t_Measure_177_time Int)(t_Measure_177_userUnderDressed Bool)(t_Measure_177_roomTemperature Int)(t_Measure_177_assentToSupportCalls Bool)(t_Measure_177_userDistressed Int)) (let ((.def_0 (exists ((t_SupportCalled_81_time Int)) (let ((.def_0 (+ t_Measure_177_time 0))) (let ((.def_1 (<= .def_0 t_SupportCalled_81_time))) (let ((.def_2 (<= t_SupportCalled_81_time .def_0))) (let ((.def_3 (and .def_2 .def_1))) (let ((.def_4 (SupportCalled t_SupportCalled_81_time))) (let ((.def_5 (and .def_4 .def_3))) .def_5)))))))))(let ((.def_1 (not true))) (let ((.def_2 (not t_Measure_177_assentToSupportCalls))) (let ((.def_3 (or .def_1 .def_2))) (let ((.def_4 (or .def_3 .def_1))) (let ((.def_5 (or .def_4 .def_0))) (let ((.def_6 (and true .def_5))) (let ((.def_7 (+ t_Measure_176_time 1800))) (let ((.def_8 (= .def_7 t_Measure_177_time))) (let ((.def_9 (and .def_8 .def_6))) (let ((.def_10 (Measure t_Measure_177_time t_Measure_177_userUnderDressed t_Measure_177_roomTemperature t_Measure_177_assentToSupportCalls t_Measure_177_userDistressed))) (let ((.def_11 (and .def_10 .def_9))) .def_11)))))))))))))))(let ((.def_1 (exists ((t_RetryAgreed_36_time Int)) (let ((.def_0 (+ DressingAbandoned_55_time 0))) (let ((.def_1 (<= .def_0 t_RetryAgreed_36_time))) (let ((.def_2 (+ DressingAbandoned_55_time 1800))) (let ((.def_3 (<= t_RetryAgreed_36_time .def_2))) (let ((.def_4 (and .def_3 .def_1))) (let ((.def_5 (RetryAgreed t_RetryAgreed_36_time))) (let ((.def_6 (and .def_5 .def_4))) .def_6))))))))))(let ((.def_2 (or .def_1 .def_0))) (let ((.def_3 (= DressingAbandoned_55_time t_Measure_176_time))) (let ((.def_4 (and .def_3 .def_2))) (let ((.def_5 (Measure t_Measure_176_time t_Measure_176_userUnderDressed t_Measure_176_roomTemperature t_Measure_176_assentToSupportCalls t_Measure_176_userDistressed))) (let ((.def_6 (and .def_5 .def_4))) .def_6))))))))))(let ((.def_1 (DressingAbandoned DressingAbandoned_55_time))) (let ((.def_2 (not .def_1))) (let ((.def_3 (or .def_2 .def_0))) .def_3)))))))(let ((.def_59 (forall ((UserFallen_66_time Int)) (let ((.def_0 (exists ((t_Measure_175_time Int)(t_Measure_175_userUnderDressed Bool)(t_Measure_175_roomTemperature Int)(t_Measure_175_assentToSupportCalls Bool)(t_Measure_175_userDistressed Int)) (let ((.def_0 (exists ((t_SupportCalled_80_time Int)) (let ((.def_0 (+ UserFallen_66_time 0))) (let ((.def_1 (<= .def_0 t_SupportCalled_80_time))) (let ((.def_2 (<= t_SupportCalled_80_time .def_0))) (let ((.def_3 (and .def_2 .def_1))) (let ((.def_4 (SupportCalled t_SupportCalled_80_time))) (let ((.def_5 (and .def_4 .def_3))) .def_5)))))))))(let ((.def_1 (not true))) (let ((.def_2 (not t_Measure_175_assentToSupportCalls))) (let ((.def_3 (or .def_1 .def_2))) (let ((.def_4 (or .def_3 .def_1))) (let ((.def_5 (or .def_4 .def_0))) (let ((.def_6 (and true .def_5))) (let ((.def_7 (= UserFallen_66_time t_Measure_175_time))) (let ((.def_8 (and .def_7 .def_6))) (let ((.def_9 (Measure t_Measure_175_time t_Measure_175_userUnderDressed t_Measure_175_roomTemperature t_Measure_175_assentToSupportCalls t_Measure_175_userDistressed))) (let ((.def_10 (and .def_9 .def_8))) .def_10))))))))))))))(let ((.def_1 (UserFallen UserFallen_66_time))) (let ((.def_2 (not .def_1))) (let ((.def_3 (or .def_2 .def_0))) .def_3)))))))(let ((.def_60 (forall ((CurtainOpenRqt_55_time Int)) (let ((.def_0 (exists ((t_Measure_174_time Int)(t_Measure_174_userUnderDressed Bool)(t_Measure_174_roomTemperature Int)(t_Measure_174_assentToSupportCalls Bool)(t_Measure_174_userDistressed Int)) (let ((.def_0 (exists ((t_CurtainsOpened_45_time Int)) (let ((.def_0 (+ CurtainOpenRqt_55_time 0))) (let ((.def_1 (<= .def_0 t_CurtainsOpened_45_time))) (let ((.def_2 (+ CurtainOpenRqt_55_time 60))) (let ((.def_3 (<= t_CurtainsOpened_45_time .def_2))) (let ((.def_4 (and .def_3 .def_1))) (let ((.def_5 (CurtainsOpened t_CurtainsOpened_45_time))) (let ((.def_6 (and .def_5 .def_4))) .def_6))))))))))(let ((.def_1 (not true))) (let ((.def_2 (< 2 t_Measure_174_userDistressed))) (let ((.def_3 (or .def_1 .def_2))) (let ((.def_4 (or .def_3 t_Measure_174_userUnderDressed))) (let ((.def_5 (or .def_4 .def_1))) (let ((.def_6 (or .def_5 .def_0))) (let ((.def_7 (exists ((t_RefuseRequest_33_time Int)) (let ((.def_0 (+ CurtainOpenRqt_55_time 0))) (let ((.def_1 (<= .def_0 t_RefuseRequest_33_time))) (let ((.def_2 (+ CurtainOpenRqt_55_time 30))) (let ((.def_3 (<= t_RefuseRequest_33_time .def_2))) (let ((.def_4 (and .def_3 .def_1))) (let ((.def_5 (RefuseRequest t_RefuseRequest_33_time))) (let ((.def_6 (and .def_5 .def_4))) .def_6))))))))))(let ((.def_8 (not t_Measure_174_userUnderDressed))) (let ((.def_9 (or .def_3 .def_8))) (let ((.def_10 (or .def_9 .def_7))) (let ((.def_11 (exists ((t_CurtainsOpened_44_time Int)) (let ((.def_0 (+ CurtainOpenRqt_55_time 0))) (let ((.def_1 (<= .def_0 t_CurtainsOpened_44_time))) (let ((.def_2 (+ CurtainOpenRqt_55_time 60))) (let ((.def_3 (<= t_CurtainsOpened_44_time .def_2))) (let ((.def_4 (and .def_3 .def_1))) (let ((.def_5 (CurtainsOpened t_CurtainsOpened_44_time))) (let ((.def_6 (and .def_5 .def_4))) .def_6))))))))))(let ((.def_12 (not .def_2))) (let ((.def_13 (or .def_1 .def_12))) (let ((.def_14 (or .def_13 .def_11))) (let ((.def_15 (and .def_14 .def_10 .def_6))) (let ((.def_16 (= CurtainOpenRqt_55_time t_Measure_174_time))) (let ((.def_17 (and .def_16 .def_15))) (let ((.def_18 (Measure t_Measure_174_time t_Measure_174_userUnderDressed t_Measure_174_roomTemperature t_Measure_174_assentToSupportCalls t_Measure_174_userDistressed))) (let ((.def_19 (and .def_18 .def_17))) .def_19)))))))))))))))))))))))(let ((.def_1 (CurtainOpenRqt CurtainOpenRqt_55_time))) (let ((.def_2 (not .def_1))) (let ((.def_3 (or .def_2 .def_0))) .def_3)))))))(let ((.def_61 (forall ((RetryAgreed_79_time Int)) (let ((.def_0 (exists ((t_Measure_173_time Int)(t_Measure_173_userUnderDressed Bool)(t_Measure_173_roomTemperature Int)(t_Measure_173_assentToSupportCalls Bool)(t_Measure_173_userDistressed Int)) (let ((.def_0 (exists ((t_DressingAbandoned_81_time Int)) (let ((.def_0 (<= RetryAgreed_79_time t_DressingAbandoned_81_time))) (let ((.def_1 (DressingAbandoned t_DressingAbandoned_81_time))) (let ((.def_2 (and .def_1 .def_0))) .def_2))))))(let ((.def_1 (exists ((t_DressingComplete_104_time Int)) (let ((.def_0 (<= RetryAgreed_79_time t_DressingComplete_104_time))) (let ((.def_1 (DressingComplete t_DressingComplete_104_time))) (let ((.def_2 (and .def_1 .def_0))) .def_2))))))(let ((.def_2 (or .def_1 .def_0))) (let ((.def_3 (= RetryAgreed_79_time t_Measure_173_time))) (let ((.def_4 (and .def_3 .def_2))) (let ((.def_5 (Measure t_Measure_173_time t_Measure_173_userUnderDressed t_Measure_173_roomTemperature t_Measure_173_assentToSupportCalls t_Measure_173_userDistressed))) (let ((.def_6 (and .def_5 .def_4))) .def_6))))))))))(let ((.def_1 (RetryAgreed RetryAgreed_79_time))) (let ((.def_2 (not .def_1))) (let ((.def_3 (or .def_2 .def_0))) .def_3)))))))(let ((.def_62 (forall ((RetryAgreed_78_time Int)) (let ((.def_0 (exists ((t_Measure_171_time Int)(t_Measure_171_userUnderDressed Bool)(t_Measure_171_roomTemperature Int)(t_Measure_171_assentToSupportCalls Bool)(t_Measure_171_userDistressed Int)) (let ((.def_0 (exists ((t_DressingStarted_62_time Int)) (let ((.def_0 (<= RetryAgreed_78_time t_DressingStarted_62_time))) (let ((.def_1 (DressingStarted t_DressingStarted_62_time))) (let ((.def_2 (and .def_1 .def_0))) .def_2))))))(let ((.def_1 (not true))) (let ((.def_2 (= t_Measure_171_userDistressed 3))) (let ((.def_3 (or .def_1 .def_2))) (let ((.def_4 (or .def_3 .def_1))) (let ((.def_5 (or .def_4 .def_0))) (let ((.def_6 (exists ((t_Measure_172_time Int)(t_Measure_172_userUnderDressed Bool)(t_Measure_172_roomTemperature Int)(t_Measure_172_assentToSupportCalls Bool)(t_Measure_172_userDistressed Int)) (let ((.def_0 (exists ((t_SupportCalled_79_time Int)) (let ((.def_0 (+ t_Measure_172_time 0))) (let ((.def_1 (<= .def_0 t_SupportCalled_79_time))) (let ((.def_2 (+ t_Measure_172_time 30))) (let ((.def_3 (<= t_SupportCalled_79_time .def_2))) (let ((.def_4 (and .def_3 .def_1))) (let ((.def_5 (SupportCalled t_SupportCalled_79_time))) (let ((.def_6 (and .def_5 .def_4))) .def_6))))))))))(let ((.def_1 (+ t_Measure_171_time 30))) (let ((.def_2 (= .def_1 t_Measure_172_time))) (let ((.def_3 (and .def_2 .def_0))) (let ((.def_4 (Measure t_Measure_172_time t_Measure_172_userUnderDressed t_Measure_172_roomTemperature t_Measure_172_assentToSupportCalls t_Measure_172_userDistressed))) (let ((.def_5 (and .def_4 .def_3))) .def_5)))))))))(let ((.def_7 (exists ((t_DressingStarted_61_time Int)) (let ((.def_0 (+ RetryAgreed_78_time 0))) (let ((.def_1 (<= .def_0 t_DressingStarted_61_time))) (let ((.def_2 (+ RetryAgreed_78_time 30))) (let ((.def_3 (<= t_DressingStarted_61_time .def_2))) (let ((.def_4 (and .def_3 .def_1))) (let ((.def_5 (DressingStarted t_DressingStarted_61_time))) (let ((.def_6 (and .def_5 .def_4))) .def_6))))))))))(let ((.def_8 (or .def_7 .def_6))) (let ((.def_9 (not .def_2))) (let ((.def_10 (or .def_1 .def_9))) (let ((.def_11 (or .def_10 .def_8))) (let ((.def_12 (and .def_11 .def_5))) (let ((.def_13 (= RetryAgreed_78_time t_Measure_171_time))) (let ((.def_14 (and .def_13 .def_12))) (let ((.def_15 (Measure t_Measure_171_time t_Measure_171_userUnderDressed t_Measure_171_roomTemperature t_Measure_171_assentToSupportCalls t_Measure_171_userDistressed))) (let ((.def_16 (and .def_15 .def_14))) .def_16))))))))))))))))))))(let ((.def_1 (RetryAgreed RetryAgreed_78_time))) (let ((.def_2 (not .def_1))) (let ((.def_3 (or .def_2 .def_0))) .def_3)))))))(let ((.def_63 (forall ((RetryAgreed_77_time Int)) (let ((.def_0 (exists ((t_Measure_170_time Int)(t_Measure_170_userUnderDressed Bool)(t_Measure_170_roomTemperature Int)(t_Measure_170_assentToSupportCalls Bool)(t_Measure_170_userDistressed Int)) (let ((.def_0 (exists ((t_DressingStarted_60_time Int)) (let ((.def_0 (+ RetryAgreed_77_time 1))) (let ((.def_1 (<= .def_0 t_DressingStarted_60_time))) (let ((.def_2 (+ RetryAgreed_77_time 30))) (let ((.def_3 (<= t_DressingStarted_60_time .def_2))) (let ((.def_4 (and .def_3 .def_1))) (let ((.def_5 (DressingStarted t_DressingStarted_60_time))) (let ((.def_6 (and .def_5 .def_4))) .def_6))))))))))(let ((.def_1 (= RetryAgreed_77_time t_Measure_170_time))) (let ((.def_2 (and .def_1 .def_0))) (let ((.def_3 (Measure t_Measure_170_time t_Measure_170_userUnderDressed t_Measure_170_roomTemperature t_Measure_170_assentToSupportCalls t_Measure_170_userDistressed))) (let ((.def_4 (and .def_3 .def_2))) .def_4))))))))(let ((.def_1 (RetryAgreed RetryAgreed_77_time))) (let ((.def_2 (not .def_1))) (let ((.def_3 (or .def_2 .def_0))) .def_3)))))))(let ((.def_64 (forall ((DressingStarted_102_time Int)) (let ((.def_0 (exists ((t_Measure_169_time Int)(t_Measure_169_userUnderDressed Bool)(t_Measure_169_roomTemperature Int)(t_Measure_169_assentToSupportCalls Bool)(t_Measure_169_userDistressed Int)) (let ((.def_0 (exists ((t_SupportCalled_78_time Int)) (let ((.def_0 (+ DressingStarted_102_time 0))) (let ((.def_1 (<= .def_0 t_SupportCalled_78_time))) (let ((.def_2 (<= t_SupportCalled_78_time .def_0))) (let ((.def_3 (and .def_2 .def_1))) (let ((.def_4 (SupportCalled t_SupportCalled_78_time))) (let ((.def_5 (and .def_4 .def_3))) .def_5)))))))))(let ((.def_1 (not true))) (let ((.def_2 (not t_Measure_169_assentToSupportCalls))) (let ((.def_3 (or .def_1 .def_2))) (let ((.def_4 (or .def_3 .def_1))) (let ((.def_5 (or .def_4 .def_0))) (let ((.def_6 (and true .def_5))) (let ((.def_7 (< 2 t_Measure_169_userDistressed))) (let ((.def_8 (not .def_7))) (let ((.def_9 (or .def_8 .def_6))) (let ((.def_10 (= DressingStarted_102_time t_Measure_169_time))) (let ((.def_11 (and .def_10 .def_9))) (let ((.def_12 (Measure t_Measure_169_time t_Measure_169_userUnderDressed t_Measure_169_roomTemperature t_Measure_169_assentToSupportCalls t_Measure_169_userDistressed))) (let ((.def_13 (and .def_12 .def_11))) .def_13)))))))))))))))))(let ((.def_1 (DressingStarted DressingStarted_102_time))) (let ((.def_2 (not .def_1))) (let ((.def_3 (or .def_2 .def_0))) .def_3)))))))(let ((.def_65 (forall ((DressingStarted_101_time Int)) (let ((.def_0 (exists ((t_Measure_168_time Int)(t_Measure_168_userUnderDressed Bool)(t_Measure_168_roomTemperature Int)(t_Measure_168_assentToSupportCalls Bool)(t_Measure_168_userDistressed Int)) (let ((.def_0 (exists ((t_DressingAbandoned_80_time Int)) (let ((.def_0 (+ DressingStarted_101_time 0))) (let ((.def_1 (<= .def_0 t_DressingAbandoned_80_time))) (let ((.def_2 (<= t_DressingAbandoned_80_time .def_0))) (let ((.def_3 (and .def_2 .def_1))) (let ((.def_4 (DressingAbandoned t_DressingAbandoned_80_time))) (let ((.def_5 (and .def_4 .def_3))) .def_5)))))))))(let ((.def_1 (< 2 t_Measure_168_userDistressed))) (let ((.def_2 (not .def_1))) (let ((.def_3 (or .def_2 .def_0))) (let ((.def_4 (= DressingStarted_101_time t_Measure_168_time))) (let ((.def_5 (and .def_4 .def_3))) (let ((.def_6 (Measure t_Measure_168_time t_Measure_168_userUnderDressed t_Measure_168_roomTemperature t_Measure_168_assentToSupportCalls t_Measure_168_userDistressed))) (let ((.def_7 (and .def_6 .def_5))) .def_7)))))))))))(let ((.def_1 (DressingStarted DressingStarted_101_time))) (let ((.def_2 (not .def_1))) (let ((.def_3 (or .def_2 .def_0))) .def_3)))))))(let ((.def_66 (forall ((DressingStarted_100_time Int)) (let ((.def_0 (exists ((t_Measure_167_time Int)(t_Measure_167_userUnderDressed Bool)(t_Measure_167_roomTemperature Int)(t_Measure_167_assentToSupportCalls Bool)(t_Measure_167_userDistressed Int)) (let ((.def_0 (exists ((t_DressingComplete_103_time Int)) (let ((.def_0 (+ DressingStarted_100_time 0))) (let ((.def_1 (<= .def_0 t_DressingComplete_103_time))) (let ((.def_2 (+ DressingStarted_100_time 120))) (let ((.def_3 (<= t_DressingComplete_103_time .def_2))) (let ((.def_4 (and .def_3 .def_1))) (let ((.def_5 (DressingComplete t_DressingComplete_103_time))) (let ((.def_6 (and .def_5 .def_4))) .def_6))))))))))(let ((.def_1 (not true))) (let ((.def_2 (<= t_Measure_167_roomTemperature 22))) (let ((.def_3 (<= t_Measure_167_roomTemperature 11))) (let ((.def_4 (and .def_3 t_Measure_167_userUnderDressed))) (let ((.def_5 (or .def_1 .def_4))) (let ((.def_6 (or .def_5 .def_2))) (let ((.def_7 (or .def_6 .def_1))) (let ((.def_8 (or .def_7 .def_0))) (let ((.def_9 (exists ((t_DressingComplete_102_time Int)) (let ((.def_0 (+ DressingStarted_100_time 0))) (let ((.def_1 (<= .def_0 t_DressingComplete_102_time))) (let ((.def_2 (- 22 t_Measure_167_roomTemperature))) (let ((.def_3 (* .def_2 15))) (let ((.def_4 (- 120 .def_3))) (let ((.def_5 (* .def_4 1))) (let ((.def_6 (+ DressingStarted_100_time .def_5))) (let ((.def_7 (<= t_DressingComplete_102_time .def_6))) (let ((.def_8 (and .def_7 .def_1))) (let ((.def_9 (DressingComplete t_DressingComplete_102_time))) (let ((.def_10 (and .def_9 .def_8))) .def_10))))))))))))))(let ((.def_10 (not .def_2))) (let ((.def_11 (or .def_5 .def_10))) (let ((.def_12 (or .def_11 .def_9))) (let ((.def_13 (exists ((t_SupportCalled_77_time Int)) (let ((.def_0 (+ DressingStarted_100_time 0))) (let ((.def_1 (<= .def_0 t_SupportCalled_77_time))) (let ((.def_2 (<= t_SupportCalled_77_time .def_0))) (let ((.def_3 (and .def_2 .def_1))) (let ((.def_4 (SupportCalled t_SupportCalled_77_time))) (let ((.def_5 (and .def_4 .def_3))) .def_5)))))))))(let ((.def_14 (not t_Measure_167_assentToSupportCalls))) (let ((.def_15 (or .def_1 .def_14))) (let ((.def_16 (or .def_15 .def_1))) (let ((.def_17 (or .def_16 .def_13))) (let ((.def_18 (and true .def_17))) (let ((.def_19 (not t_Measure_167_userUnderDressed))) (let ((.def_20 (not .def_3))) (let ((.def_21 (or .def_20 .def_19))) (let ((.def_22 (or .def_1 .def_21))) (let ((.def_23 (or .def_22 .def_18))) (let ((.def_24 (and .def_23 .def_12 .def_8))) (let ((.def_25 (exists ((t_DressingAbandoned_79_time Int)) (let ((.def_0 (+ DressingStarted_100_time 0))) (let ((.def_1 (<= .def_0 t_DressingAbandoned_79_time))) (let ((.def_2 (+ DressingStarted_100_time 120))) (let ((.def_3 (<= t_DressingAbandoned_79_time .def_2))) (let ((.def_4 (and .def_3 .def_1))) (let ((.def_5 (DressingAbandoned t_DressingAbandoned_79_time))) (let ((.def_6 (and .def_5 .def_4))) .def_6))))))))))(let ((.def_26 (or .def_25 .def_24))) (let ((.def_27 (= DressingStarted_100_time t_Measure_167_time))) (let ((.def_28 (and .def_27 .def_26))) (let ((.def_29 (Measure t_Measure_167_time t_Measure_167_userUnderDressed t_Measure_167_roomTemperature t_Measure_167_assentToSupportCalls t_Measure_167_userDistressed))) (let ((.def_30 (and .def_29 .def_28))) .def_30))))))))))))))))))))))))))))))))))(let ((.def_1 (DressingStarted DressingStarted_100_time))) (let ((.def_2 (not .def_1))) (let ((.def_3 (or .def_2 .def_0))) .def_3)))))))(let ((.def_67 (forall ((DressingStarted_99_time Int)) (let ((.def_0 (exists ((t_Measure_166_time Int)(t_Measure_166_userUnderDressed Bool)(t_Measure_166_roomTemperature Int)(t_Measure_166_assentToSupportCalls Bool)(t_Measure_166_userDistressed Int)) (let ((.def_0 (exists ((t_DressingComplete_101_time Int)) (let ((.def_0 (+ DressingStarted_99_time 0))) (let ((.def_1 (<= .def_0 t_DressingComplete_101_time))) (let ((.def_2 (+ DressingStarted_99_time 120))) (let ((.def_3 (<= t_DressingComplete_101_time .def_2))) (let ((.def_4 (and .def_3 .def_1))) (let ((.def_5 (DressingComplete t_DressingComplete_101_time))) (let ((.def_6 (and .def_5 .def_4))) .def_6))))))))))(let ((.def_1 (not true))) (let ((.def_2 (< t_Measure_166_roomTemperature 19))) (let ((.def_3 (< t_Measure_166_roomTemperature 17))) (let ((.def_4 (or .def_1 .def_3))) (let ((.def_5 (or .def_4 .def_2))) (let ((.def_6 (or .def_5 .def_1))) (let ((.def_7 (or .def_6 .def_0))) (let ((.def_8 (exists ((t_DressingComplete_100_time Int)) (let ((.def_0 (+ DressingStarted_99_time 0))) (let ((.def_1 (<= .def_0 t_DressingComplete_100_time))) (let ((.def_2 (+ DressingStarted_99_time 90))) (let ((.def_3 (<= t_DressingComplete_100_time .def_2))) (let ((.def_4 (and .def_3 .def_1))) (let ((.def_5 (DressingComplete t_DressingComplete_100_time))) (let ((.def_6 (and .def_5 .def_4))) .def_6))))))))))(let ((.def_9 (not .def_2))) (let ((.def_10 (or .def_4 .def_9))) (let ((.def_11 (or .def_10 .def_8))) (let ((.def_12 (exists ((t_DressingComplete_99_time Int)) (let ((.def_0 (+ DressingStarted_99_time 0))) (let ((.def_1 (<= .def_0 t_DressingComplete_99_time))) (let ((.def_2 (+ DressingStarted_99_time 60))) (let ((.def_3 (<= t_DressingComplete_99_time .def_2))) (let ((.def_4 (and .def_3 .def_1))) (let ((.def_5 (DressingComplete t_DressingComplete_99_time))) (let ((.def_6 (and .def_5 .def_4))) .def_6))))))))))(let ((.def_13 (not .def_3))) (let ((.def_14 (or .def_1 .def_13))) (let ((.def_15 (or .def_14 .def_12))) (let ((.def_16 (and .def_15 .def_11 .def_7))) (let ((.def_17 (exists ((t_DressingAbandoned_78_time Int)) (let ((.def_0 (+ DressingStarted_99_time 0))) (let ((.def_1 (<= .def_0 t_DressingAbandoned_78_time))) (let ((.def_2 (+ DressingStarted_99_time 120))) (let ((.def_3 (<= t_DressingAbandoned_78_time .def_2))) (let ((.def_4 (and .def_3 .def_1))) (let ((.def_5 (DressingAbandoned t_DressingAbandoned_78_time))) (let ((.def_6 (and .def_5 .def_4))) .def_6))))))))))(let ((.def_18 (or .def_17 .def_16))) (let ((.def_19 (= DressingStarted_99_time t_Measure_166_time))) (let ((.def_20 (and .def_19 .def_18))) (let ((.def_21 (Measure t_Measure_166_time t_Measure_166_userUnderDressed t_Measure_166_roomTemperature t_Measure_166_assentToSupportCalls t_Measure_166_userDistressed))) (let ((.def_22 (and .def_21 .def_20))) .def_22))))))))))))))))))))))))))(let ((.def_1 (DressingStarted DressingStarted_99_time))) (let ((.def_2 (not .def_1))) (let ((.def_3 (or .def_2 .def_0))) .def_3)))))))(let ((.def_68 (exists ((t_UserFallen_23_time Int)) (let ((.def_0 (exists ((t_Measure_165_time Int)(t_Measure_165_userUnderDressed Bool)(t_Measure_165_roomTemperature Int)(t_Measure_165_assentToSupportCalls Bool)(t_Measure_165_userDistressed Int)) (let ((.def_0 (= t_UserFallen_23_time t_Measure_165_time))) (let ((.def_1 (and .def_0 t_Measure_165_assentToSupportCalls))) (let ((.def_2 (Measure t_Measure_165_time t_Measure_165_userUnderDressed t_Measure_165_roomTemperature t_Measure_165_assentToSupportCalls t_Measure_165_userDistressed))) (let ((.def_3 (and .def_2 .def_1))) .def_3)))))))(let ((.def_1 (UserFallen t_UserFallen_23_time))) (let ((.def_2 (and .def_1 .def_0))) .def_2))))))(let ((.def_69 (and .def_68 .def_67 .def_66 .def_65 .def_64 .def_63 .def_62 .def_61 .def_60 .def_59 .def_58 .def_57 .def_56 .def_55 .def_54 .def_49 .def_44 .def_39 .def_34 .def_29 .def_24 .def_19 .def_14 .def_9 .def_8 .def_7 .def_6 .def_5 .def_4 .def_3 .def_2 .def_1 .def_0))) .def_69)))))))))))))))))))))))))))))))))))))))))))))))))))))))))))))))))))))))
(check-sat)
